##  triplet methylene

import sys
sys.path.append('../')

molecule ch2 {
    0 3
    c
    h 1 b1
    h 1 b1 2 a1

    b1 = 1.0
    a1 = 125.0
}

set {
    reference uhf
    basis     6-31G**
    docc      [2, 0, 0, 1]
    socc      [1, 0, 1, 0]
    scf_type  pk
    e_convergence 12
    MAXITER 75
}

Eref = energy('scf')

basisname = psi4.get_global_option("BASIS")
basisset = psi4.BasisSet.pyconstruct_orbital(ch2,"BASIS",basisname)
mints    = psi4.MintsHelper(basisset)

# call Hartree-Fock code here
from uhf import UHF
uhf = UHF(ch2, mints)
uhf.compute_energy()

print("Psi4 UHF energy:{:21.11f}".format(Eref))
